(set-logic HORN)
(set-info :source |
  Benchmark: test_safe_2019/termination/up_down.4.ml
  Generated by MoCHi
|)
(set-info :status unknown)
(declare-fun |fail_4886[0:0]| ( Int) Bool)
(declare-fun |up_without_checking_119[0:2]| ( Bool  Int  Int) Bool)
(assert (not (exists ((x0 Int)) (|fail_4886[0:0]| x0))))
(assert (forall ((x0 Int)(x2 Int)(var12 Bool)(var13 Int)) (=> (and (|up_without_checking_119[0:2]| var12 var13 x2) (<= 1 x2)) (|fail_4886[0:0]| x0))))
(assert (forall ((x5 Bool)(x6 Int)(x7 Int)) (=> (and (= x6 0) (and (<= (+ 1 x7) 0) (not x5))) (|up_without_checking_119[0:2]| x5 x6 x7))))
(check-sat)
(get-model)
(exit)
